proyfinal/src/viki/013/experimentInOfficeAgust.take6.output/a0656d59-0335-45c8-8249-b35e6cddb9e3.als.out
Reading from standard input... Use '--help' for help.
============================[ Problem Statistics ]=============================
|                                                                             |
|  Number of variables:         87638                                         |
|  Number of clauses:          161767                                         |
|  Parse time:                   0.04 s                                       |
|                                                                             |
============================[ Search Statistics ]==============================
| Conflicts |          ORIGINAL         |          LEARNT          | Progress |
|           |    Vars  Clauses Literals |    Limit  Clauses Lit/Cl |          |
===============================================================================
|       100 |   63481   109284   273277 |    40070      100     35 | 27.565 % |
|       250 |   63481   109284   273277 |    44077      250     82 | 27.565 % |
|       475 |   63481   109284   273277 |    48485      475     90 | 27.565 % |
|       812 |   44233    51651   131801 |    53334      788     64 | 49.528 % |
|      1318 |   44224    51594   131649 |    58667     1078     55 | 49.538 % |
|      2077 |   44206    51483   131355 |    64534     1383     46 | 49.558 % |
===============================================================================
restarts              : 15
conflicts             : 3067           (9894 /sec)
decisions             : 11955          (0.00 % random) (38566 /sec)
propagations          : 4160715        (13422224 /sec)
conflict literals     : 108366         (27.21 % deleted)
Memory used           : 23.22 MB
CPU time              : 0.309987 s

UNSATISFIABLE
